Data path: /scratch/opt/lxu/CFLG/benchmarks/random_B
Instance: r_25_0.4_112.txt
Result path: /scratch/opt/lxu/CFLG/results/random_B
Solver: Gurobi
Time limit: 3600
Formulation: LEFP
Cover: Large
julia --project=. src/main.jl /scratch/opt/lxu/CFLG/benchmarks/random_B r_25_0.4_112.txt /scratch/opt/lxu/CFLG/results/random_B Gurobi 3600 LEFP Large
The latest version of Julia in the `release` channel is 1.11.5+0.x64.linux.gnu. You currently have `1.11.4+0.x64.linux.gnu` installed. Run:

  juliaup update

in your terminal shell to install Julia 1.11.5+0.x64.linux.gnu and update the `release` channel to that version.
/scratch/opt/lxu/CFLG/benchmarks/random_B Gurobi 3600.0 /scratch/opt/lxu/CFLG/results/random_B r_25_0.4_112.txt LEFP Large
/scratch/opt/lxu/CFLG/benchmarks/random_B/r_25_0.4_112.txt

 read graph
data loaded

problem_graph/original graph: node: 25/25 edge: 112/112 dlt: 1.2844245833368715 break_avg_len: 0.6422122916684357 break_max_len: 0.9982318395224349Set parameter TokenServer to value "solice01.zib.de"
Set parameter Threads to value 1
Set parameter OutputFlag to value 1
Gurobi Optimizer version 12.0.1 build v12.0.1rc0 (linux64 - "Debian GNU/Linux 12 (bookworm)")

CPU model: Intel(R) Xeon(R) Gold 5122 CPU @ 3.60GHz, instruction set [SSE2|AVX|AVX2|AVX512]
Thread count: 8 physical cores, 16 logical processors, using up to 1 threads

Non-default parameters:
Threads  1

Optimize a model with 137 rows, 336 columns and 560 nonzeros
Model fingerprint: 0x491b1042
Coefficient statistics:
  Matrix range     [1e+00, 1e+00]
  Objective range  [1e+00, 1e+00]
  Bounds range     [1e+00, 1e+00]
  RHS range        [0e+00, 0e+00]
Presolve removed 137 rows and 336 columns
Presolve time: 0.02s
Presolve: All rows and columns removed
Iteration    Objective       Primal Inf.    Dual Inf.      Time
       0   -0.0000000e+00   0.000000e+00   0.000000e+00      0s

Solved in 0 iterations and 0.02 seconds (0.00 work units)
Optimal objective -0.000000000e+00

User-callback calls 35, time in user-callback 0.01 sec
elapsed CPU time: 1.22805 seconds
Set parameter TokenServer to value "solice01.zib.de"
Set parameter Threads to value 1
Set parameter OutputFlag to value 1
Set parameter MIPGap to value 0.0001
Set parameter MIPGapAbs to value 1
Set parameter TimeLimit to value 3598.77195

 more cuts:falsefalse
0 0
formulation:LEFP0 112 25

 model loaded

Gurobi Optimizer version 12.0.1 build v12.0.1rc0 (linux64 - "Debian GNU/Linux 12 (bookworm)")

CPU model: Intel(R) Xeon(R) Gold 5122 CPU @ 3.60GHz, instruction set [SSE2|AVX|AVX2|AVX512]
Thread count: 8 physical cores, 16 logical processors, using up to 1 threads

Non-default parameters:
TimeLimit  3598.77195
MIPGapAbs  1
Threads  1

Optimize a model with 12119 rows, 5939 columns and 36120 nonzeros
Model fingerprint: 0x8d4a2f55
Variable types: 249 continuous, 5690 integer (5690 binary)
Coefficient statistics:
  Matrix range     [1e-06, 2e+00]
  Objective range  [1e+00, 1e+00]
  Bounds range     [3e-01, 1e+00]
  RHS range        [3e-01, 1e+01]
Found heuristic solution: objective 24.0000000
Presolve removed 2830 rows and 145 columns
Presolve time: 0.13s
Presolved: 9289 rows, 5794 columns, 33012 nonzeros
Variable types: 137 continuous, 5657 integer (5657 binary)

Root relaxation: objective 4.739727e-01, 3364 iterations, 0.13 seconds (0.28 work units)

    Nodes    |    Current Node    |     Objective Bounds      |     Work
 Expl Unexpl |  Obj  Depth IntInf | Incumbent    BestBd   Gap | It/Node Time

     0     0    0.47397    0  517   24.00000    0.47397  98.0%     -    0s
H    0     0                       8.0000000    0.47397  94.1%     -    0s
H    0     0                       5.0000000    0.47397  90.5%     -    0s
H    0     0                       4.0000000    0.47397  88.2%     -    0s
H    0     0                       2.0000000    0.47397  76.3%     -    0s
     0     0    0.74343    0  379    2.00000    0.74343  62.8%     -    1s
     0     0    0.81069    0  483    2.00000    0.81069  59.5%     -    2s
     0     0    0.81471    0  483    2.00000    0.81471  59.3%     -    2s
     0     0    0.82316    0  409    2.00000    0.82316  58.8%     -    2s
     0     0    0.82340    0  411    2.00000    0.82340  58.8%     -    2s
     0     0    0.82340    0  411    2.00000    0.82340  58.8%     -    2s
     0     0    0.82647    0  391    2.00000    0.82647  58.7%     -    2s
     0     0    0.82723    0  412    2.00000    0.82723  58.6%     -    2s
     0     0    0.82723    0  412    2.00000    0.82723  58.6%     -    2s

Cutting planes:
  Learned: 5
  Gomory: 1
  Cover: 3
  Implied bound: 3
  Clique: 1
  MIR: 43
  StrongCG: 5
  RLT: 2
  Relax-and-lift: 7
  BQP: 8
  PSD: 1

Explored 1 nodes (9449 simplex iterations) in 3.24 seconds (2.76 work units)
Thread count was 1 (of 16 available processors)

Solution count 5: 2 4 5 ... 24

Optimal solution found (tolerance 1.00e-04)
Best objective 2.000000000000e+00, best bound 2.000000000000e+00, gap 0.0000%

User-callback calls 1558, time in user-callback 0.00 sec

 sepatime0
2.0Stat(MathOptInterface.OPTIMAL, 2.0, 2.0, 0.0, 0.0, 1.22805, 3.243812084197998, 1, Main.CFLG.LEFP, "", #undef)
